(set-logic QF_S)
(declare-fun var0 () String)
(declare-fun var1 () String)
(declare-fun var2 () Int)
(declare-fun var3 () String)
(declare-fun var4 () String)
(declare-fun var5 () Int)
(declare-fun var6 () Int)
(declare-fun var7 () Int)
(assert (< (str.indexof var0 var1 var2) (str.to.int var3)))
(assert (>= (str.len (str.replace var4 var0 var0)) (str.indexof (str.at var1 var5) (str.replace var4 var4 var3) (str.to.int var3))))
(assert (<= (str.indexof var0 var0 var6) (str.to.int var3)))
(assert (> 44 var7))
(check-sat)